45
1612
141
137
163
158
165
128
210
92
91
99
98
217
202
34
36
13
14
20
18
39
8
5
3
4
195
46
45
52
207
47
117
116
66
65
109
125
124
123
184
182
173
174
176
146
157
